(set-info :source  loris-7.ddns.comp.nus.edu.sg/~project/hip/) 
;Variables declarations
(declare-fun v () Int)
(declare-fun xs () Int)
(declare-fun qmin_1658 () Int)
(declare-fun v_primed () Int)
(declare-fun n () Int)
(declare-fun qmin_1569 () Int)
(declare-fun xl () Int)
(declare-fun flted_16_1566 () Int)
(declare-fun qs_1567 () Int)
(declare-fun ql_1568 () Int)
(declare-fun xs_1598 () Int)
(declare-fun xl_1599 () Int)
(declare-fun n_1597 () Int)
(declare-fun q_1659 () Int)
(declare-fun sres_1613 () Int)
(declare-fun lres_1614 () Int)
(declare-fun nres_1615 () Int)
(declare-fun v_node_80_1654 () Int)
;Relations declarations
;Axioms assertions
;Antecedent
(assert (<= xs_1598 xl_1599))
(assert (<= qs_1567 ql_1568))
(assert (<= 0 flted_16_1566))
(assert (= v_primed v))
(assert (<= xs qmin_1569))
(assert (= qmin_1658 qmin_1569))
(assert (not (= v_primed qmin_1569)))
(assert (<= qmin_1569 v_primed))
(assert (= (+ flted_16_1566 1) n))
(assert (<= qmin_1569 qs_1567))
(assert (<= ql_1568 xl))
(assert (= n_1597 flted_16_1566))
(assert (= xs_1598 qs_1567))
(assert (= xl_1599 ql_1568))
(assert (<= xs_1598 sres_1613))
(assert (<= lres_1614 xl_1599))
(assert (<= 0 n_1597))
(assert (<= nres_1615 n_1597))
(assert (<= n_1597 (+ nres_1615 1)))
(assert (= q_1659 v_node_80_1654))
(assert (or (and (and (< v_node_80_1654 1) (= nres_1615 0)) (<= sres_1613 lres_1614)) (and (and (<= sres_1613 lres_1614) (<= 1 nres_1615)) (> v_node_80_1654 0))))
;Negation of Consequence
(assert (not (or (= nres_1615 0) (< v_node_80_1654 1))))
(check-sat)